3173.89 784039
47441.5 718485
783186 36058.7
366015 455193
712064 133780
38149.8 732177
433943 382526
611693 229283
149335 659446
35721.2 736277
198119 601191
777621 90732.5
240672 572032
46550.5 727003
403893 420033
587634 234157
599051 232331
264530 571714
779104 87124.1
292976 507127
266526 566316
742480 105260
29461.9 748397
529008 280730
150456 656874
484933 311973
754188 102879
283543 537624
29381.3 756232
268602 541508
395844 430031
335489 459807
26448.6 759078
438414 359540
503903 281463
26529.2 757802
501887 298839
216985 577923
598840 233020
401749 426070
713257 130172
291993 509721
348988 457302
284377 514452
488317 306681
438396 362538
400251 429387
289328 512376
